generated by phonopy                    
   1.00000000000000     
     2.4600000028969773    0.0000000000000000    0.0000000000000000
    -1.2300000014484886    2.1304224958185749    0.0000000000000000
     0.0000000000000000    0.0000000000000000   20.0000000000000036
   C 
     2
Direct
  0.3333333333333357  0.6666666666666643  0.0000000000000000
  0.6666666666666643  0.3333333333333357  0.0000000000000000
 
  0.00000000E+00  0.00000000E+00  0.00000000E+00
  0.00000000E+00  0.00000000E+00  0.00000000E+00
